09-routing/solutions/XSH-n20-k4-06.opt.sol
Route #1: 16 11 18 1
Route #2: 15 5 20 2 12
Route #3: 8 14 13 10 6 17
Route #4: 4 3 19 7 9
Cost 690
